Minimize
  - 17 y_0 - 5 y_1 - 21 y_2 - 7 y_3 - 13 y_4 - 15 y_6 - 7 y_7 - 19 y_8
   - 8 y_9 + 59 x_0_2 + 68 x_0_5 + 33 x_1_3 + 40 x_1_4 + 51 x_1_6
   + 16 x_1_7 + 39 x_2_6 + 14 x_2_8 + 26 x_3_5 + 69 x_3_8 + 12 x_4_6
   + 39 x_4_8 + 28 x_6_9 + 10 x_7_9 + 112 Constant
Subject To
 c_0: y_4 = 1
 c_1_0: y_0 >= 1
 c_1_1: y_1 >= 1
 c_1_2: y_2 >= 1
 c_1_3: y_3 >= 1
 c_1_4: y_4 >= 1
 c_1_5: y_5 >= 1
 c_1_6: y_6 >= 1
 c_1_7: y_7 >= 1
 c_1_8: y_8 >= 1
 c_1_9: y_9 >= 1
 c_2_0: - 2 y_0 + x_0_2 + x_0_5 = 0
 c_2_1: - 2 y_1 + x_1_3 + x_1_4 + x_1_6 + x_1_7 = 0
 c_2_2: - 2 y_2 + x_0_2 + x_2_6 + x_2_8 = 0
 c_2_3: - 2 y_3 + x_1_3 + x_3_5 + x_3_8 = 0
 c_2_4: - 2 y_4 + x_1_4 + x_4_6 + x_4_8 = 0
 c_2_5: - 2 y_5 + x_0_5 + x_3_5 = 0
 c_2_6: - 2 y_6 + x_1_6 + x_2_6 + x_4_6 + x_6_9 = 0
 c_2_7: - 2 y_7 + x_1_7 + x_7_9 = 0
 c_2_8: - 2 y_8 + x_2_8 + x_3_8 + x_4_8 = 0
 c_2_9: - 2 y_9 + x_6_9 + x_7_9 = 0
Bounds
 Constant = 1
Binaries
 y_0 y_1 y_2 y_3 y_4 y_5 y_6 y_7 y_8 y_9 x_0_2 x_0_5 x_1_3 x_1_4 x_1_6
 x_1_7 x_2_6 x_2_8 x_3_5 x_3_8 x_4_6 x_4_8 x_6_9 x_7_9
End
